<number of tasks>
50

<cycle time>
1000

<order strength>
0.597


<task times>
1 55
2 181
3 83
4 46
5 153
6 22
7 267
8 103
9 141
10 194
11 287
12 249
13 103
14 114
15 145
16 187
17 132
18 120
19 204
20 83
21 297
22 62
23 163
24 247
25 151
26 299
27 95
28 120
29 273
30 181
31 96
32 28
33 266
34 135
35 21
36 107
37 66
38 166
39 205
40 113
41 126
42 141
43 146
44 50
45 90
46 52
47 147
48 91
49 46
50 25

<precedence relations>
1,12
2,3
2,4
2,5
2,6
2,7
2,8
3,12
4,12
5,12
6,27
7,9
8,10
8,12
9,12
10,11
10,13
10,14
10,15
10,24
11,42
12,16
12,17
12,18
12,19
12,20
13,27
14,22
14,32
15,21
16,25
17,23
17,24
17,26
17,32
17,37
18,23
19,25
20,43
20,45
21,22
22,27
23,27
24,27
25,28
25,29
25,30
25,31
26,31
26,38
27,33
27,34
27,35
27,36
27,38
28,38
28,39
28,41
29,32
29,37
30,45
31,40
31,41
32,42
33,39
33,44
34,41
36,40
39,42
40,42
41,42
41,43
41,44
41,45
42,46
42,47
42,48
42,49
42,50

<end>
